N = 10;
H = 5;
T = 2;

avail = array3d(1..N, 1..H, 1..T, [5, 3, 5, 0, 3, 5, 4, 4, 7, 0, 6, 10, 4, 10, 1, 6, 3, 10, 1, 5, 8, 3, 7, 0, 5, 4, 2, 4, 4, 1, 6, 8, 1, 6, 8, 9, 5, 9, 3, 3, 7, 8, 8, 1, 0, 1, 7, 10, 2, 8, 6, 5, 4, 6, 6, 7, 7, 0, 7, 5, 6, 0, 3, 3, 3, 10, 3, 3, 1, 2, 4, 3, 3, 8, 8, 7, 7, 1, 9, 3, 4, 3, 8, 9, 6, 1, 7, 7, 6, 3, 9, 10, 8, 7, 10, 1, 3, 7, 8, 4]);

r = array2d(1..H, 1..T, [4, 1, 1, 6, 6, 3, 2, 0, 3, 4]);
